DIMACS2
80 70 50 211 0 67 190 42 253 292 76 204 38 56 240 132 121 117 64 281 140 93 207 235 57 101 35 302 82 287 169 182 209 232 171 305 224 36 92 221 49 172 105 231 37 25 81 245 205 77 311 41 131 256 53 127 230 3 59 55 158 174 136 96 118 40 189 233 106 184 254 242 303 45 148 153 46 290 1 2 237
p edge 320 690
e 0 97 40.0
e 0 271 40.0
e 0 44 37.0
e 0 96 46.0
e 0 178 39.0
e 0 93 44.0
e 0 314 22.0
e 0 119 34.0
e 1 277 24.0
e 1 254 22.0
e 1 41 10.0
e 1 193 6.0
e 1 129 26.0
e 1 292 6.0
e 1 115 9.0
e 1 20 23.0
e 2 230 14.0
e 2 99 34.0
e 2 184 18.0
e 2 266 45.0
e 2 203 38.0
e 2 155 6.0
e 2 221 3.0
e 2 46 48.0
e 2 105 32.0
e 3 255 3.0
e 3 0 44.0
e 3 53 45.0
e 3 153 43.0
e 3 172 48.0
e 3 150 32.0
e 3 256 31.0
e 3 126 12.0
e 4 125 1.0
e 5 94 1.0
e 6 22 2.0
e 7 43 1.0
e 7 3 28.0
e 8 215 1.0
e 9 93 1.0
e 10 75 1.0
e 11 132 3.0
e 11 138 8.0
e 11 76 7.0
e 12 118 2.0
e 12 120 8.0
e 12 68 7.0
e 13 59 20.0
e 13 7 2.0
e 14 218 1.0
e 15 207 45.0
e 16 35 8.0
e 17 240 45.0
e 18 116 1.0
e 19 177 1.0
e 20 121 22.0
e 21 236 1.0
e 22 63 1.0
e 23 116 1.0
e 24 82 8.0
e 25 5 4.0
e 25 184 21.0
e 25 45 2.0
e 25 170 44.0
e 25 225 32.0
e 25 207 20.0
e 25 251 49.0
e 26 176 1.0
e 27 270 6.0
e 27 33 4.0
e 28 207 16.0
e 29 94 1.0
e 30 243 2.0
e 31 18 1.0
e 32 318 1.0
e 33 221 18.0
e 34 58 2.0
e 35 205 32.0
e 35 263 26.0
e 35 101 12.0
e 35 264 28.0
e 35 102 43.0
e 36 35 12.0
e 36 275 6.0
e 36 204 36.0
e 36 67 2.0
e 36 106 24.0
e 36 245 14.0
e 36 70 40.0
e 37 173 40.0
e 37 155 2.0
e 37 300 42.0
e 37 163 5.0
e 37 92 26.0
e 37 201 12.0
e 37 207 27.0
e 37 62 45.0
e 38 61 7.0
e 38 143 45.0
e 38 57 38.0
e 38 126 10.0
e 38 45 31.0
e 38 135 12.0
e 38 217 25.0
e 38 237 29.0
e 39 82 27.0
e 40 254 11.0
e 40 96 38.0
e 40 169 10.0
e 40 276 23.0
e 40 102 4.0
e 40 174 29.0
e 40 207 18.0
e 40 308 18.0
e 41 317 3.0
e 41 161 14.0
e 41 158 26.0
e 41 82 20.0
e 41 28 27.0
e 41 237 5.0
e 41 219 18.0
e 42 152 26.0
e 42 280 41.0
e 42 46 37.0
e 42 139 32.0
e 42 93 26.0
e 42 146 18.0
e 42 302 31.0
e 42 181 39.0
e 42 303 31.0
e 43 32 1.0
e 44 124 2.0
e 45 160 44.0
e 45 289 36.0
e 45 283 5.0
e 45 229 41.0
e 45 179 13.0
e 45 172 30.0
e 46 125 14.0
e 46 127 23.0
e 46 252 22.0
e 46 101 43.0
e 46 76 45.0
e 46 224 32.0
e 47 199 1.0
e 48 176 1.0
e 49 29 4.0
e 49 303 42.0
e 49 305 21.0
e 49 127 10.0
e 49 164 3.0
e 49 6 38.0
e 49 51 22.0
e 49 209 37.0
e 49 85 35.0
e 50 277 32.0
e 50 305 3.0
e 50 64 43.0
e 50 237 43.0
e 50 294 37.0
e 50 194 39.0
e 50 25 5.0
e 50 281 29.0
e 51 175 1.0
e 52 171 24.0
e 53 267 15.0
e 53 224 42.0
e 53 8 33.0
e 53 117 2.0
e 53 281 35.0
e 53 23 41.0
e 54 202 1.0
e 55 29 11.0
e 55 45 27.0
e 55 174 20.0
e 55 220 26.0
e 55 56 28.0
e 55 319 39.0
e 55 90 8.0
e 55 315 39.0
e 55 200 17.0
e 56 303 16.0
e 56 35 34.0
e 56 269 14.0
e 56 182 14.0
e 56 285 16.0
e 56 204 27.0
e 56 53 43.0
e 56 140 32.0
e 57 192 24.0
e 57 91 47.0
e 57 256 44.0
e 57 253 23.0
e 57 196 29.0
e 57 67 46.0
e 57 158 10.0
e 58 207 16.0
e 59 172 26.0
e 59 281 3.0
e 59 121 24.0
e 59 92 19.0
e 59 46 20.0
e 59 27 49.0
e 59 287 29.0
e 59 127 4.0
e 60 14 1.0
e 61 243 1.0
e 62 84 4.0
e 63 310 1.0
e 64 185 4.0
e 64 12 29.0
e 64 9 27.0
e 64 147 4.0
e 64 290 36.0
e 64 140 24.0
e 64 55 44.0
e 64 38 4.0
e 65 223 1.0
e 66 136 13.0
e 67 54 1.0
e 67 174 25.0
e 67 105 13.0
e 67 48 44.0
e 67 221 20.0
e 67 26 18.0
e 68 286 1.0
e 69 141 1.0
e 70 140 14.0
e 70 259 28.0
e 70 11 6.0
e 70 148 31.0
e 70 20 46.0
e 70 150 31.0
e 71 234 1.0
e 72 78 1.0
e 73 97 1.0
e 74 93 46.0
e 75 140 46.0
e 76 98 12.0
e 76 36 26.0
e 76 37 14.0
e 76 204 42.0
e 76 56 45.0
e 76 39 20.0
e 76 281 29.0
e 77 98 16.0
e 77 281 7.0
e 77 16 34.0
e 77 40 11.0
e 77 101 4.0
e 77 41 14.0
e 77 164 7.0
e 77 111 11.0
e 78 36 6.0
e 79 35 35.0
e 80 157 1.0
e 81 45 4.0
e 81 42 33.0
e 81 239 31.0
e 81 140 48.0
e 81 57 31.0
e 81 189 44.0
e 82 97 9.0
e 82 256 14.0
e 82 169 19.0
e 82 281 27.0
e 82 182 14.0
e 82 197 20.0
e 83 69 3.0
e 84 134 1.0
e 85 250 1.0
e 86 244 1.0
e 87 158 7.0
e 88 159 1.0
e 89 71 1.0
e 90 21 1.0
e 91 53 33.0
e 92 63 41.0
e 92 153 49.0
e 92 117 11.0
e 92 49 36.0
e 92 93 45.0
e 92 50 46.0
e 92 198 2.0
e 93 89 42.0
e 93 148 2.0
e 93 281 34.0
e 94 89 1.0
e 95 261 1.0
e 96 87 24.0
e 96 182 13.0
e 96 174 19.0
e 96 92 4.0
e 96 121 22.0
e 96 240 2.0
e 97 77 28.0
e 98 52 1.0
e 99 70 21.0
e 100 258 1.0
e 101 173 28.0
e 101 59 46.0
e 101 224 18.0
e 101 311 32.0
e 101 183 38.0
e 101 153 19.0
e 102 106 31.0
e 103 105 2.0
e 104 228 1.0
e 105 124 32.0
e 105 290 47.0
e 105 106 30.0
e 105 130 29.0
e 105 245 25.0
e 105 64 8.0
e 106 191 45.0
e 106 169 24.0
e 106 66 12.0
e 106 117 33.0
e 106 187 15.0
e 107 60 1.0
e 108 214 2.0
e 109 157 1.0
e 110 127 13.0
e 111 284 2.0
e 112 182 43.0
e 113 151 3.0
e 114 215 1.0
e 115 237 16.0
e 116 248 1.0
e 117 223 33.0
e 117 67 17.0
e 117 140 27.0
e 117 182 22.0
e 117 167 15.0
e 117 153 22.0
e 118 104 2.0
e 118 153 9.0
e 118 70 14.0
e 118 112 21.0
e 118 281 24.0
e 118 101 23.0
e 118 305 38.0
e 118 182 29.0
e 119 237 41.0
e 120 87 1.0
e 121 216 14.0
e 121 204 9.0
e 121 189 4.0
e 121 184 10.0
e 122 58 1.0
e 123 39 2.0
e 124 258 2.0
e 125 182 13.0
e 126 304 4.0
e 127 253 29.0
e 127 221 7.0
e 127 172 43.0
e 127 76 16.0
e 127 204 1.0
e 128 218 1.0
e 129 113 1.0
e 130 260 2.0
e 131 310 4.0
e 131 204 13.0
e 131 117 47.0
e 131 77 6.0
e 131 79 8.0
e 131 140 5.0
e 131 165 27.0
e 132 163 49.0
e 132 311 17.0
e 132 302 31.0
e 132 240 1.0
e 132 80 2.0
e 132 136 28.0
e 132 105 40.0
e 132 207 3.0
e 133 162 1.0
e 134 145 1.0
e 135 123 1.0
e 136 89 29.0
e 136 140 49.0
e 136 287 10.0
e 136 290 48.0
e 136 127 33.0
e 136 253 26.0
e 136 81 12.0
e 137 168 1.0
e 138 236 1.0
e 139 161 4.0
e 140 168 13.0
e 141 267 1.0
e 142 32 2.0
e 143 279 1.0
e 144 81 16.0
e 145 215 1.0
e 146 115 1.0
e 147 73 1.0
e 148 67 44.0
e 148 82 17.0
e 148 287 17.0
e 148 211 3.0
e 148 182 2.0
e 148 319 12.0
e 149 134 1.0
e 150 232 46.0
e 151 301 1.0
e 152 230 31.0
e 153 222 45.0
e 153 93 32.0
e 153 204 24.0
e 154 149 1.0
e 155 240 1.0
e 156 243 1.0
e 157 18 1.0
e 158 62 10.0
e 158 287 47.0
e 158 95 40.0
e 158 316 19.0
e 158 224 28.0
e 159 277 1.0
e 160 17 1.0
e 161 158 18.0
e 162 110 2.0
e 163 142 4.0
e 164 211 39.0
e 165 137 1.0
e 166 299 1.0
e 167 234 1.0
e 168 230 26.0
e 169 185 12.0
e 169 109 38.0
e 169 311 17.0
e 169 184 31.0
e 169 96 20.0
e 170 37 43.0
e 171 244 45.0
e 171 128 16.0
e 171 207 30.0
e 171 106 47.0
e 171 209 21.0
e 171 256 15.0
e 171 287 48.0
e 171 169 10.0
e 172 13 41.0
e 172 184 48.0
e 172 170 11.0
e 172 230 6.0
e 173 238 1.0
e 174 292 39.0
e 174 118 31.0
e 174 121 13.0
e 174 253 37.0
e 175 234 1.0
e 176 86 1.0
e 177 193 5.0
e 178 273 1.0
e 179 262 2.0
e 180 182 12.0
e 181 74 2.0
e 182 306 40.0
e 183 107 2.0
e 184 34 14.0
e 184 240 32.0
e 184 131 31.0
e 184 132 32.0
e 185 121 27.0
e 186 299 2.0
e 187 299 2.0
e 188 281 3.0
e 189 5 22.0
e 189 240 33.0
e 189 136 40.0
e 189 171 7.0
e 189 245 48.0
e 189 140 37.0
e 189 210 38.0
e 190 218 27.0
e 190 302 38.0
e 190 148 15.0
e 190 254 34.0
e 190 153 49.0
e 190 158 31.0
e 190 155 49.0
e 190 287 13.0
e 190 184 27.0
e 191 180 3.0
e 192 185 2.0
e 193 121 39.0
e 194 93 26.0
e 195 154 1.0
e 196 162 1.0
e 197 54 1.0
e 198 307 1.0
e 199 89 1.0
e 200 106 24.0
e 201 17 2.0
e 202 206 1.0
e 203 226 2.0
e 204 88 20.0
e 205 278 26.0
e 205 302 17.0
e 205 156 29.0
e 205 230 46.0
e 205 172 21.0
e 205 211 46.0
e 205 174 4.0
e 205 204 16.0
e 206 256 23.0
e 208 4 1.0
e 209 312 49.0
e 209 319 44.0
e 209 189 39.0
e 209 253 23.0
e 209 287 6.0
e 209 190 40.0
e 209 205 28.0
e 210 247 1.0
e 211 58 19.0
e 211 209 45.0
e 211 212 41.0
e 211 221 2.0
e 211 224 16.0
e 211 230 4.0
e 212 70 19.0
e 213 14 1.0
e 214 24 5.0
e 215 86 1.0
e 216 81 32.0
e 217 292 39.0
e 218 131 16.0
e 219 122 1.0
e 220 102 9.0
e 221 15 4.0
e 221 253 47.0
e 221 224 10.0
e 221 230 16.0
e 222 131 32.0
e 223 53 45.0
e 224 207 9.0
e 224 230 25.0
e 224 245 14.0
e 225 72 2.0
e 226 19 1.0
e 227 41 26.0
e 228 148 24.0
e 229 227 2.0
e 230 57 4.0
e 231 270 42.0
e 231 232 18.0
e 231 211 27.0
e 231 221 2.0
e 231 224 15.0
e 231 233 43.0
e 231 235 13.0
e 231 237 10.0
e 232 188 40.0
e 232 233 36.0
e 232 235 33.0
e 232 237 8.0
e 232 0 27.0
e 232 240 5.0
e 232 242 14.0
e 233 69 21.0
e 233 235 15.0
e 233 287 7.0
e 233 291 23.0
e 233 237 22.0
e 233 240 10.0
e 233 242 23.0
e 234 168 1.0
e 235 254 47.0
e 235 237 18.0
e 235 240 13.0
e 235 242 37.0
e 235 287 27.0
e 236 226 2.0
e 237 282 42.0
e 238 313 1.0
e 239 50 37.0
e 240 313 19.0
e 241 108 1.0
e 242 172 44.0
e 242 231 23.0
e 242 309 48.0
e 242 245 12.0
e 242 246 27.0
e 243 119 5.0
e 244 83 2.0
e 245 5 37.0
e 245 232 36.0
e 245 233 48.0
e 245 235 40.0
e 246 36 41.0
e 247 236 1.0
e 248 208 1.0
e 249 31 1.0
e 250 307 1.0
e 251 1 12.0
e 252 96 14.0
e 253 30 39.0
e 253 242 19.0
e 254 166 22.0
e 254 245 29.0
e 254 253 38.0
e 254 290 14.0
e 254 256 37.0
e 255 133 2.0
e 256 180 1.0
e 256 257 43.0
e 257 14 1.0
e 258 230 41.0
e 259 113 1.0
e 260 153 48.0
e 261 19 1.0
e 262 174 33.0
e 263 114 1.0
e 264 256 37.0
e 265 274 1.0
e 266 273 1.0
e 267 168 2.0
e 268 10 2.0
e 269 25 37.0
e 270 32 2.0
e 271 286 3.0
e 272 66 4.0
e 273 100 1.0
e 274 35 5.0
e 275 317 1.0
e 276 288 1.0
e 277 215 1.0
e 278 94 2.0
e 279 46 46.0
e 280 4 1.0
e 281 100 47.0
e 282 207 23.0
e 283 30 1.0
e 284 38 19.0
e 285 282 1.0
e 286 314 4.0
e 287 213 26.0
e 288 65 3.0
e 289 268 1.0
e 290 61 46.0
e 290 256 9.0
e 290 292 13.0
e 290 293 29.0
e 290 295 17.0
e 291 186 1.0
e 292 47 13.0
e 292 254 6.0
e 292 296 48.0
e 292 297 21.0
e 293 260 2.0
e 294 24 1.0
e 295 144 2.0
e 296 248 1.0
e 297 199 1.0
e 298 169 28.0
e 299 272 2.0
e 300 253 19.0
e 301 288 3.0
e 302 265 45.0
e 302 290 35.0
e 302 292 43.0
e 302 298 3.0
e 303 151 15.0
e 303 1 38.0
e 303 302 47.0
e 303 305 11.0
e 303 311 21.0
e 304 204 7.0
e 305 103 21.0
e 305 311 49.0
e 305 2 18.0
e 306 25 2.0
e 307 249 1.0
e 308 235 44.0
e 309 195 1.0
e 310 40 45.0
e 311 242 14.0
e 311 3 39.0
e 312 81 30.0
e 313 241 1.0
e 314 302 11.0
e 315 307 1.0
e 316 173 1.0
e 317 292 7.0
e 318 270 1.0
e 319 231 7.0
